1 168 126 51 56 85 184 62 146 179 178 88 110 135 159 58 148 54 194 114 0 59 122 23 39 108 70 24 124 5 106 50 63 4 10 55 156 7 147 91 26 134 113 67 41 139 116 53 36 175 119 97 158 30 167 164 78 140 16 128 138 43 120 21 6 166 25 77 190 90 57 28 44 65 13 40 125 94 69 14 192 93 47 165 155 29 107 98 102 66 12 173 196 112 17 95 49 161 87 141 100 152 150 118 80 52 61 182 199 76 83 37 143 111 180 92 68 162 127 197 142 131 123 171 86 186 8 81 19 115 195 42 185 79 193 45 3 136 96 187 15 163 144 137 32 133 160 18 64 132 27 104 188 109 20 105 71 145 82 2 46 48 33 174 117 22 149 157 151 89 103 34 38 191 75 176 129 181 170 183 60 101 99 84 72 130 11 177 198 31 121 74 169 153 154 189 9 172 73 35 

